(set-logic QF_FP)
(set-option :produce-models true)
(set-info :source |Random FP created by PyMPF|)
(set-info :category random)
(set-info :status unsat)
(declare-const x Float32)
(assert (= x ((_ to_fp 8 24) #x7FE4A870)))
(declare-const y Float32)
(assert (= y (fp #b1 #b00011011 #b11000000010100000010100)))
(declare-const z Float32)
(assert (= z ((_ to_fp 8 24) #x00800000)))
(declare-const result Float32)
(assert (= result (fp.fma RTN x y z)))
(assert (not (= result (_ NaN 8 24))))
(check-sat)
(exit)
